p cnf 118 235
1 2 3 4 5 0
-1 -2 0
-1 -3 0
-1 -4 0
-1 -5 0
-2 -3 0
-2 -4 0
-2 -5 0
-3 -4 0
-3 -5 0
-4 -5 0
-1 -84 47 0
-12 -85 53 0
-13 -86 59 0
-14 -87 65 0
-15 -88 71 0
-16 -89 77 0
-17 -90 83 0
-2 -91 47 0
-19 -92 53 0
-20 -93 59 0
-21 -94 65 0
-22 -95 71 0
-23 -96 77 0
-24 -97 83 0
-3 -98 47 0
-26 -99 53 0
-27 -100 59 0
-28 -101 65 0
-29 -102 71 0
-30 -103 77 0
-31 -104 83 0
-4 -105 47 0
-33 -106 53 0
-34 -107 59 0
-35 -108 65 0
-36 -109 71 0
-37 -110 77 0
-38 -111 83 0
-5 -112 47 0
-40 -113 53 0
-41 -114 59 0
-42 -115 65 0
-43 -116 71 0
-44 -117 77 0
-45 -118 83 0
-1 12 0
1 -12 0
-12 13 0
12 -13 0
-13 14 0
13 -14 0
-14 15 0
14 -15 0
-15 16 0
15 -16 0
-16 17 0
16 -17 0
-17 18 0
17 -18 0
-2 19 0
2 -19 0
-19 20 0
19 -20 0
-20 21 0
20 -21 0
-21 22 0
21 -22 0
-22 23 0
22 -23 0
-23 24 0
23 -24 0
-24 25 0
24 -25 0
-3 26 0
3 -26 0
-26 27 0
26 -27 0
-27 28 0
27 -28 0
-28 29 0
28 -29 0
-29 30 0
29 -30 0
-30 31 0
30 -31 0
-31 32 0
31 -32 0
-4 33 0
4 -33 0
-33 34 0
33 -34 0
-34 35 0
34 -35 0
-35 36 0
35 -36 0
-36 37 0
36 -37 0
-37 38 0
37 -38 0
-38 39 0
38 -39 0
-5 40 0
5 -40 0
-40 41 0
40 -41 0
-41 42 0
41 -42 0
-42 43 0
42 -43 0
-43 44 0
43 -44 0
-44 45 0
44 -45 0
-45 46 0
45 -46 0
-6 47 0
-1 -84 7 0
-7 1 0
-7 84 0
-2 -91 8 0
-8 2 0
-8 91 0
-3 -98 9 0
-9 3 0
-9 98 0
-4 -105 10 0
-10 4 0
-10 105 0
-5 -112 11 0
-11 5 0
-11 112 0
7 8 9 10 11 6 -47 0
-47 53 0
-12 -85 48 0
-48 12 0
-48 85 0
-19 -92 49 0
-49 19 0
-49 92 0
-26 -99 50 0
-50 26 0
-50 99 0
-33 -106 51 0
-51 33 0
-51 106 0
-40 -113 52 0
-52 40 0
-52 113 0
48 49 50 51 52 47 -53 0
-53 59 0
-13 -86 54 0
-54 13 0
-54 86 0
-20 -93 55 0
-55 20 0
-55 93 0
-27 -100 56 0
-56 27 0
-56 100 0
-34 -107 57 0
-57 34 0
-57 107 0
-41 -114 58 0
-58 41 0
-58 114 0
54 55 56 57 58 53 -59 0
-59 65 0
-14 -87 60 0
-60 14 0
-60 87 0
-21 -94 61 0
-61 21 0
-61 94 0
-28 -101 62 0
-62 28 0
-62 101 0
-35 -108 63 0
-63 35 0
-63 108 0
-42 -115 64 0
-64 42 0
-64 115 0
60 61 62 63 64 59 -65 0
-65 71 0
-15 -88 66 0
-66 15 0
-66 88 0
-22 -95 67 0
-67 22 0
-67 95 0
-29 -102 68 0
-68 29 0
-68 102 0
-36 -109 69 0
-69 36 0
-69 109 0
-43 -116 70 0
-70 43 0
-70 116 0
66 67 68 69 70 65 -71 0
-71 77 0
-16 -89 72 0
-72 16 0
-72 89 0
-23 -96 73 0
-73 23 0
-73 96 0
-30 -103 74 0
-74 30 0
-74 103 0
-37 -110 75 0
-75 37 0
-75 110 0
-44 -117 76 0
-76 44 0
-76 117 0
72 73 74 75 76 71 -77 0
-77 83 0
-17 -90 78 0
-78 17 0
-78 90 0
-24 -97 79 0
-79 24 0
-79 97 0
-31 -104 80 0
-80 31 0
-80 104 0
-38 -111 81 0
-81 38 0
-81 111 0
-45 -118 82 0
-82 45 0
-82 118 0
78 79 80 81 82 77 -83 0
